cost: 1085.96
Route 1:           0    4   15   28   33   24    0
Route 2:           0   10    6   42   37   20    0
Route 3:           0   12   34   31   11   30   17   14    1    0
Route 4:           0   16    5   25   45   41    0
Route 5:           0   23   19   47   26    9   38   13   22    0
Route 6:           0   44   40   39    8    3   27    0
Route 7:           0   46   36   18   21    2    0
Route 8:           0   48   32   43    7    0
Route 9:           0   49   29   50   35    0
